50
18382

298 236
559 506
556 903
656 886
583 719
294 692
835 833
180 294
784 327
411 188
180 32
703 95
567 57
105 267
35 170
94 785
694 180
464 384
737 730
797 909
600 143
951 407
667 748
756 727
385 133
191 831
156 771
899 429
379 35
961 302
193 224
796 936
152 457
882 523
151 340
149 187
299 503
204 877
118 370
669 628
256 457
862 868
845 495
912 389
938 643
157 940
646 977
452 956
653 904
465 871
